This is Ipopt version 3.12.13, running with linear solver ma57.

Number of nonzeros in equality constraint Jacobian...:        0
Number of nonzeros in inequality constraint Jacobian.:     9144
Number of nonzeros in Lagrangian Hessian.............:       21

Total number of variables............................:        6
                     variables with only lower bounds:        0
                variables with lower and upper bounds:        6
                     variables with only upper bounds:        0
Total number of equality constraints.................:        0
Total number of inequality constraints...............:     1524
        inequality constraints with only lower bounds:        0
   inequality constraints with lower and upper bounds:        0
        inequality constraints with only upper bounds:     1524

iter    objective    inf_pr   inf_du lg(mu)  ||d||  lg(rg) alpha_du alpha_pr  ls
   0  9.0015470e-02 0.00e+00 6.16e+00   0.0 0.00e+00    -  0.00e+00 0.00e+00   0
   1  7.4708014e-02 0.00e+00 7.71e-02  -5.1 3.80e-02    -  9.23e-01 1.00e+00f  1
   2  5.2585388e-02 0.00e+00 3.40e-03  -2.3 1.99e-01    -  9.56e-01 1.00e+00h  1
   3  1.7460623e-02 0.00e+00 4.97e-03  -2.7 1.25e-01    -  9.91e-01 1.00e+00h  1
   4  6.1409924e-04 0.00e+00 2.28e-03  -3.6 1.70e-01    -  9.98e-01 1.00e+00h  1
   5  1.6768323e-06 0.00e+00 8.17e-05  -5.1 3.66e-02    -  1.00e+00 1.00e+00h  1

Number of Iterations....: 5

                                   (scaled)                 (unscaled)
Objective...............:   1.6768323007593359e-06    1.6768323007593359e-06
Dual infeasibility......:   8.1683314593263993e-05    8.1683314593263993e-05
Constraint violation....:   0.0000000000000000e+00    0.0000000000000000e+00
Complementarity.........:   9.3621920146831684e-05    9.3621920146831684e-05
Overall NLP error.......:   9.3621920146831684e-05    9.3621920146831684e-05


Number of objective function evaluations             = 6
Number of objective gradient evaluations             = 6
Number of equality constraint evaluations            = 0
Number of inequality constraint evaluations          = 6
Number of equality constraint Jacobian evaluations   = 0
Number of inequality constraint Jacobian evaluations = 6
Number of Lagrangian Hessian evaluations             = 5
Total CPU secs in IPOPT (w/o function evaluations)   =      0.004
Total CPU secs in NLP function evaluations           =      0.010

EXIT: Optimal Solution Found.
